# Solution for model MIP
# Objective value = -1.2414587112334775e+02
theta -7.4976573509284208e+01
z_w0_k0_m0 6.8704424717972779e-01
z_w0_k0_m1 2.9657592063633453e-01
z_w0_k1_m0 9.1508881822278210e-01
z_w0_k1_m1 9.1508881822278210e-01
z_w0_k2_m0 6.8704424717972779e-01
z_w0_k2_m1 2.9657592063633453e-01
z_w1_k0_m0 9.3987443984820906e-01
z_w1_k0_m1 9.3987443984820906e-01
z_w1_k1_m0 9.1508881822278210e-01
z_w1_k1_m1 9.1508881822278210e-01
z_w1_k2_m0 8.8339568661075674e-01
z_w1_k2_m1 8.8339568661075674e-01
z_w2_k0_m0 9.3987443984820906e-01
z_w2_k0_m1 9.3987443984820906e-01
z_w2_k1_m0 9.1508881822278210e-01
z_w2_k1_m1 9.1508881822278210e-01
z_w2_k2_m0 9.2581306803204166e-01
z_w2_k2_m1 8.8339568661075674e-01
z_w3_k0_m0 9.3987443984820906e-01
z_w3_k0_m1 9.3987443984820906e-01
z_w3_k1_m0 6.8704424717972779e-01
z_w3_k1_m1 2.9657592063633453e-01
z_w3_k2_m0 8.8339568661075674e-01
z_w3_k2_m1 8.8339568661075674e-01
z_w4_k0_m0 6.8704424717972779e-01
z_w4_k0_m1 2.9657592063633453e-01
z_w4_k1_m0 6.8704424717972779e-01
z_w4_k1_m1 2.9657592063633453e-01
z_w4_k2_m0 6.8704424717972779e-01
z_w4_k2_m1 2.9657592063633453e-01
pi_w0_t0_k0 1
pi_w0_t0_k1 0
pi_w0_t0_k2 1
pi_w0_t1_k0 0
pi_w0_t1_k1 0
pi_w0_t1_k2 0
pi_w0_t2_k0 0
pi_w0_t2_k1 0
pi_w0_t2_k2 0
pi_w0_t3_k0 0
pi_w0_t3_k1 0
pi_w0_t3_k2 0
pi_w0_t4_k0 0
pi_w0_t4_k1 0
pi_w0_t4_k2 0
pi_w0_t5_k0 0
pi_w0_t5_k1 0
pi_w0_t5_k2 0
pi_w0_t6_k0 0
pi_w0_t6_k1 0
pi_w0_t6_k2 0
pi_w0_t7_k0 0
pi_w0_t7_k1 7.2932107511498465e-02
pi_w0_t7_k2 0
pi_w0_t8_k0 0
pi_w0_t8_k1 0
pi_w0_t8_k2 0
pi_w0_t9_k0 0
pi_w0_t9_k1 0
pi_w0_t9_k2 0
pi_w0_t10_k0 0
pi_w0_t10_k1 0
pi_w0_t10_k2 0
pi_w0_t11_k0 0
pi_w0_t11_k1 0
pi_w0_t11_k2 0
pi_w0_t12_k0 0
pi_w0_t12_k1 0
pi_w0_t12_k2 0
pi_w0_t13_k0 0
pi_w0_t13_k1 0
pi_w0_t13_k2 0
pi_w0_t14_k0 0
pi_w0_t14_k1 0
pi_w0_t14_k2 0
pi_w0_t15_k0 0
pi_w0_t15_k1 0
pi_w0_t15_k2 0
pi_w0_t16_k0 0
pi_w0_t16_k1 0
pi_w0_t16_k2 0
pi_w0_t17_k0 0
pi_w0_t17_k1 0
pi_w0_t17_k2 0
pi_w0_t18_k0 0
pi_w0_t18_k1 0
pi_w0_t18_k2 0
pi_w0_t19_k0 0
pi_w0_t19_k1 0
pi_w0_t19_k2 0
pi_w0_t20_k0 0
pi_w0_t20_k1 0
pi_w0_t20_k2 0
pi_w0_t21_k0 0
pi_w0_t21_k1 0
pi_w0_t21_k2 0
pi_w0_t22_k0 0
pi_w0_t22_k1 0
pi_w0_t22_k2 0
pi_w0_t23_k0 0
pi_w0_t23_k1 0
pi_w0_t23_k2 0
pi_w0_t24_k0 0
pi_w0_t24_k1 0
pi_w0_t24_k2 0
pi_w0_t25_k0 0
pi_w0_t25_k1 2.1901913702595230e-01
pi_w0_t25_k2 0
pi_w0_t26_k0 0
pi_w0_t26_k1 7.0804875546254920e-01
pi_w0_t26_k2 0
pi_w0_t27_k0 0
pi_w0_t27_k1 0
pi_w0_t27_k2 0
pi_w0_t28_k0 0
pi_w0_t28_k1 0
pi_w0_t28_k2 0
pi_w0_t29_k0 0
pi_w0_t29_k1 0
pi_w0_t29_k2 0
pi_w0_t30_k0 0
pi_w0_t30_k1 0
pi_w0_t30_k2 0
pi_w0_t31_k0 0
pi_w0_t31_k1 0
pi_w0_t31_k2 0
pi_w0_t32_k0 0
pi_w0_t32_k1 0
pi_w0_t32_k2 0
pi_w0_t33_k0 0
pi_w0_t33_k1 0
pi_w0_t33_k2 0
pi_w0_t34_k0 0
pi_w0_t34_k1 0
pi_w0_t34_k2 0
pi_w0_t35_k0 0
pi_w0_t35_k1 0
pi_w0_t35_k2 0
pi_w0_t36_k0 0
pi_w0_t36_k1 0
pi_w0_t36_k2 0
pi_w0_t37_k0 0
pi_w0_t37_k1 0
pi_w0_t37_k2 0
pi_w0_t38_k0 0
pi_w0_t38_k1 0
pi_w0_t38_k2 0
pi_w0_t39_k0 0
pi_w0_t39_k1 0
pi_w0_t39_k2 0
pi_w0_t40_k0 0
pi_w0_t40_k1 0
pi_w0_t40_k2 0
pi_w0_t41_k0 0
pi_w0_t41_k1 0
pi_w0_t41_k2 0
pi_w1_t0_k0 0
pi_w1_t0_k1 0
pi_w1_t0_k2 0
pi_w1_t1_k0 0
pi_w1_t1_k1 0
pi_w1_t1_k2 0
pi_w1_t2_k0 0
pi_w1_t2_k1 0
pi_w1_t2_k2 0
pi_w1_t3_k0 0
pi_w1_t3_k1 0
pi_w1_t3_k2 0
pi_w1_t4_k0 0
pi_w1_t4_k1 0
pi_w1_t4_k2 0
pi_w1_t5_k0 0
pi_w1_t5_k1 0
pi_w1_t5_k2 0
pi_w1_t6_k0 2.9439242643988361e-01
pi_w1_t6_k1 5.2222718100591436e-03
pi_w1_t6_k2 0
pi_w1_t7_k0 0
pi_w1_t7_k1 7.8881120010002553e-02
pi_w1_t7_k2 2.2375212710760253e-01
pi_w1_t8_k0 0
pi_w1_t8_k1 0
pi_w1_t8_k2 0
pi_w1_t9_k0 0
pi_w1_t9_k1 0
pi_w1_t9_k2 2.2332513007381868e-01
pi_w1_t10_k0 0
pi_w1_t10_k1 0
pi_w1_t10_k2 0
pi_w1_t11_k0 2.2585787405633553e-01
pi_w1_t11_k1 0
pi_w1_t11_k2 0
pi_w1_t12_k0 0
pi_w1_t12_k1 0
pi_w1_t12_k2 0
pi_w1_t13_k0 0
pi_w1_t13_k1 0
pi_w1_t13_k2 0
pi_w1_t14_k0 0
pi_w1_t14_k1 0
pi_w1_t14_k2 0
pi_w1_t15_k0 0
pi_w1_t15_k1 0
pi_w1_t15_k2 0
pi_w1_t16_k0 0
pi_w1_t16_k1 0
pi_w1_t16_k2 0
pi_w1_t17_k0 0
pi_w1_t17_k1 0
pi_w1_t17_k2 0
pi_w1_t18_k0 0
pi_w1_t18_k1 0
pi_w1_t18_k2 0
pi_w1_t19_k0 0
pi_w1_t19_k1 0
pi_w1_t19_k2 0
pi_w1_t20_k0 0
pi_w1_t20_k1 0
pi_w1_t20_k2 0
pi_w1_t21_k0 0
pi_w1_t21_k1 0
pi_w1_t21_k2 0
pi_w1_t22_k0 0
pi_w1_t22_k1 0
pi_w1_t22_k2 0
pi_w1_t23_k0 0
pi_w1_t23_k1 0
pi_w1_t23_k2 0
pi_w1_t24_k0 0
pi_w1_t24_k1 0
pi_w1_t24_k2 0
pi_w1_t25_k0 0
pi_w1_t25_k1 2.0098596489305903e-01
pi_w1_t25_k2 0
pi_w1_t26_k0 4.7974969950378094e-01
pi_w1_t26_k1 7.1491064328687925e-01
pi_w1_t26_k2 5.5292274281857878e-01
pi_w1_t27_k0 0
pi_w1_t27_k1 0
pi_w1_t27_k2 0
pi_w1_t28_k0 0
pi_w1_t28_k1 0
pi_w1_t28_k2 0
pi_w1_t29_k0 0
pi_w1_t29_k1 0
pi_w1_t29_k2 0
pi_w1_t30_k0 0
pi_w1_t30_k1 0
pi_w1_t30_k2 0
pi_w1_t31_k0 0
pi_w1_t31_k1 0
pi_w1_t31_k2 0
pi_w1_t32_k0 0
pi_w1_t32_k1 0
pi_w1_t32_k2 0
pi_w1_t33_k0 0
pi_w1_t33_k1 0
pi_w1_t33_k2 0
pi_w1_t34_k0 0
pi_w1_t34_k1 0
pi_w1_t34_k2 0
pi_w1_t35_k0 0
pi_w1_t35_k1 0
pi_w1_t35_k2 0
pi_w1_t36_k0 0
pi_w1_t36_k1 0
pi_w1_t36_k2 0
pi_w1_t37_k0 0
pi_w1_t37_k1 0
pi_w1_t37_k2 0
pi_w1_t38_k0 0
pi_w1_t38_k1 0
pi_w1_t38_k2 0
pi_w1_t39_k0 0
pi_w1_t39_k1 0
pi_w1_t39_k2 0
pi_w1_t40_k0 0
pi_w1_t40_k1 0
pi_w1_t40_k2 0
pi_w1_t41_k0 0
pi_w1_t41_k1 0
pi_w1_t41_k2 0
pi_w2_t0_k0 0
pi_w2_t0_k1 0
pi_w2_t0_k2 0
pi_w2_t1_k0 0
pi_w2_t1_k1 0
pi_w2_t1_k2 0
pi_w2_t2_k0 0
pi_w2_t2_k1 0
pi_w2_t2_k2 0
pi_w2_t3_k0 0
pi_w2_t3_k1 0
pi_w2_t3_k2 0
pi_w2_t4_k0 0
pi_w2_t4_k1 0
pi_w2_t4_k2 0
pi_w2_t5_k0 0
pi_w2_t5_k1 0
pi_w2_t5_k2 0
pi_w2_t6_k0 0
pi_w2_t6_k1 0
pi_w2_t6_k2 0
pi_w2_t7_k0 0
pi_w2_t7_k1 0
pi_w2_t7_k2 0
pi_w2_t8_k0 0
pi_w2_t8_k1 0
pi_w2_t8_k2 0
pi_w2_t9_k0 0
pi_w2_t9_k1 0
pi_w2_t9_k2 0
pi_w2_t10_k0 0
pi_w2_t10_k1 0
pi_w2_t10_k2 0
pi_w2_t11_k0 0
pi_w2_t11_k1 0
pi_w2_t11_k2 0
pi_w2_t12_k0 0
pi_w2_t12_k1 0
pi_w2_t12_k2 0
pi_w2_t13_k0 0
pi_w2_t13_k1 0
pi_w2_t13_k2 0
pi_w2_t14_k0 0
pi_w2_t14_k1 0
pi_w2_t14_k2 0
pi_w2_t15_k0 0
pi_w2_t15_k1 0
pi_w2_t15_k2 0
pi_w2_t16_k0 0
pi_w2_t16_k1 2.9549054760843441e-01
pi_w2_t16_k2 0
pi_w2_t17_k0 0
pi_w2_t17_k1 0
pi_w2_t17_k2 0
pi_w2_t18_k0 0
pi_w2_t18_k1 0
pi_w2_t18_k2 0
pi_w2_t19_k0 0
pi_w2_t19_k1 0
pi_w2_t19_k2 0
pi_w2_t20_k0 0
pi_w2_t20_k1 0
pi_w2_t20_k2 0
pi_w2_t21_k0 0
pi_w2_t21_k1 0
pi_w2_t21_k2 0
pi_w2_t22_k0 0
pi_w2_t22_k1 0
pi_w2_t22_k2 0
pi_w2_t23_k0 0
pi_w2_t23_k1 0
pi_w2_t23_k2 0
pi_w2_t24_k0 0
pi_w2_t24_k1 0
pi_w2_t24_k2 0
pi_w2_t25_k0 4.6155832664030935e-02
pi_w2_t25_k1 0
pi_w2_t25_k2 8.1009569296994088e-01
pi_w2_t26_k0 0
pi_w2_t26_k1 0
pi_w2_t26_k2 0
pi_w2_t27_k0 0
pi_w2_t27_k1 0
pi_w2_t27_k2 0
pi_w2_t28_k0 2.9605785998287332e-01
pi_w2_t28_k1 0
pi_w2_t28_k2 0
pi_w2_t29_k0 0
pi_w2_t29_k1 0
pi_w2_t29_k2 0
pi_w2_t30_k0 0
pi_w2_t30_k1 0
pi_w2_t30_k2 0
pi_w2_t31_k0 0
pi_w2_t31_k1 0
pi_w2_t31_k2 1.8990430703005912e-01
pi_w2_t32_k0 0
pi_w2_t32_k1 0
pi_w2_t32_k2 0
pi_w2_t33_k0 0
pi_w2_t33_k1 3.1996970059599084e-01
pi_w2_t33_k2 0
pi_w2_t34_k0 0
pi_w2_t34_k1 0
pi_w2_t34_k2 0
pi_w2_t35_k0 0
pi_w2_t35_k1 0
pi_w2_t35_k2 0
pi_w2_t36_k0 0
pi_w2_t36_k1 0
pi_w2_t36_k2 0
pi_w2_t37_k0 0
pi_w2_t37_k1 0
pi_w2_t37_k2 0
pi_w2_t38_k0 0
pi_w2_t38_k1 3.8453975179557476e-01
pi_w2_t38_k2 0
pi_w2_t39_k0 0
pi_w2_t39_k1 0
pi_w2_t39_k2 0
pi_w2_t40_k0 6.5778630735309573e-01
pi_w2_t40_k1 0
pi_w2_t40_k2 0
pi_w2_t41_k0 0
pi_w2_t41_k1 0
pi_w2_t41_k2 0
pi_w3_t0_k0 0
pi_w3_t0_k1 1
pi_w3_t0_k2 0
pi_w3_t1_k0 0
pi_w3_t1_k1 0
pi_w3_t1_k2 0
pi_w3_t2_k0 0
pi_w3_t2_k1 0
pi_w3_t2_k2 0
pi_w3_t3_k0 0
pi_w3_t3_k1 0
pi_w3_t3_k2 0
pi_w3_t4_k0 0
pi_w3_t4_k1 0
pi_w3_t4_k2 0
pi_w3_t5_k0 0
pi_w3_t5_k1 0
pi_w3_t5_k2 0
pi_w3_t6_k0 2.9439242643988195e-01
pi_w3_t6_k1 0
pi_w3_t6_k2 0
pi_w3_t7_k0 0
pi_w3_t7_k1 0
pi_w3_t7_k2 2.2375212710760245e-01
pi_w3_t8_k0 0
pi_w3_t8_k1 0
pi_w3_t8_k2 0
pi_w3_t9_k0 0
pi_w3_t9_k1 0
pi_w3_t9_k2 2.2332513007381813e-01
pi_w3_t10_k0 0
pi_w3_t10_k1 0
pi_w3_t10_k2 0
pi_w3_t11_k0 2.2585787405634100e-01
pi_w3_t11_k1 0
pi_w3_t11_k2 0
pi_w3_t12_k0 0
pi_w3_t12_k1 0
pi_w3_t12_k2 0
pi_w3_t13_k0 0
pi_w3_t13_k1 0
pi_w3_t13_k2 0
pi_w3_t14_k0 0
pi_w3_t14_k1 0
pi_w3_t14_k2 0
pi_w3_t15_k0 0
pi_w3_t15_k1 0
pi_w3_t15_k2 0
pi_w3_t16_k0 0
pi_w3_t16_k1 0
pi_w3_t16_k2 0
pi_w3_t17_k0 0
pi_w3_t17_k1 0
pi_w3_t17_k2 0
pi_w3_t18_k0 0
pi_w3_t18_k1 0
pi_w3_t18_k2 0
pi_w3_t19_k0 0
pi_w3_t19_k1 0
pi_w3_t19_k2 0
pi_w3_t20_k0 0
pi_w3_t20_k1 0
pi_w3_t20_k2 0
pi_w3_t21_k0 0
pi_w3_t21_k1 0
pi_w3_t21_k2 0
pi_w3_t22_k0 0
pi_w3_t22_k1 0
pi_w3_t22_k2 0
pi_w3_t23_k0 0
pi_w3_t23_k1 0
pi_w3_t23_k2 0
pi_w3_t24_k0 0
pi_w3_t24_k1 0
pi_w3_t24_k2 0
pi_w3_t25_k0 0
pi_w3_t25_k1 0
pi_w3_t25_k2 0
pi_w3_t26_k0 4.7974969950377711e-01
pi_w3_t26_k1 0
pi_w3_t26_k2 5.5292274281857945e-01
pi_w3_t27_k0 0
pi_w3_t27_k1 0
pi_w3_t27_k2 0
pi_w3_t28_k0 0
pi_w3_t28_k1 0
pi_w3_t28_k2 0
pi_w3_t29_k0 0
pi_w3_t29_k1 0
pi_w3_t29_k2 0
pi_w3_t30_k0 0
pi_w3_t30_k1 0
pi_w3_t30_k2 0
pi_w3_t31_k0 0
pi_w3_t31_k1 0
pi_w3_t31_k2 0
pi_w3_t32_k0 0
pi_w3_t32_k1 0
pi_w3_t32_k2 0
pi_w3_t33_k0 0
pi_w3_t33_k1 0
pi_w3_t33_k2 0
pi_w3_t34_k0 0
pi_w3_t34_k1 0
pi_w3_t34_k2 0
pi_w3_t35_k0 0
pi_w3_t35_k1 0
pi_w3_t35_k2 0
pi_w3_t36_k0 0
pi_w3_t36_k1 0
pi_w3_t36_k2 0
pi_w3_t37_k0 0
pi_w3_t37_k1 0
pi_w3_t37_k2 0
pi_w3_t38_k0 0
pi_w3_t38_k1 0
pi_w3_t38_k2 0
pi_w3_t39_k0 0
pi_w3_t39_k1 0
pi_w3_t39_k2 0
pi_w3_t40_k0 0
pi_w3_t40_k1 0
pi_w3_t40_k2 0
pi_w3_t41_k0 0
pi_w3_t41_k1 0
pi_w3_t41_k2 0
pi_w4_t0_k0 1
pi_w4_t0_k1 1
pi_w4_t0_k2 1
pi_w4_t1_k0 0
pi_w4_t1_k1 0
pi_w4_t1_k2 0
pi_w4_t2_k0 0
pi_w4_t2_k1 0
pi_w4_t2_k2 0
pi_w4_t3_k0 0
pi_w4_t3_k1 0
pi_w4_t3_k2 0
pi_w4_t4_k0 0
pi_w4_t4_k1 0
pi_w4_t4_k2 0
pi_w4_t5_k0 0
pi_w4_t5_k1 0
pi_w4_t5_k2 0
pi_w4_t6_k0 0
pi_w4_t6_k1 0
pi_w4_t6_k2 0
pi_w4_t7_k0 0
pi_w4_t7_k1 0
pi_w4_t7_k2 0
pi_w4_t8_k0 0
pi_w4_t8_k1 0
pi_w4_t8_k2 0
pi_w4_t9_k0 0
pi_w4_t9_k1 0
pi_w4_t9_k2 0
pi_w4_t10_k0 0
pi_w4_t10_k1 0
pi_w4_t10_k2 0
pi_w4_t11_k0 0
pi_w4_t11_k1 0
pi_w4_t11_k2 0
pi_w4_t12_k0 0
pi_w4_t12_k1 0
pi_w4_t12_k2 0
pi_w4_t13_k0 0
pi_w4_t13_k1 0
pi_w4_t13_k2 0
pi_w4_t14_k0 0
pi_w4_t14_k1 0
pi_w4_t14_k2 0
pi_w4_t15_k0 0
pi_w4_t15_k1 0
pi_w4_t15_k2 0
pi_w4_t16_k0 0
pi_w4_t16_k1 0
pi_w4_t16_k2 0
pi_w4_t17_k0 0
pi_w4_t17_k1 0
pi_w4_t17_k2 0
pi_w4_t18_k0 0
pi_w4_t18_k1 0
pi_w4_t18_k2 0
pi_w4_t19_k0 0
pi_w4_t19_k1 0
pi_w4_t19_k2 0
pi_w4_t20_k0 0
pi_w4_t20_k1 0
pi_w4_t20_k2 0
pi_w4_t21_k0 0
pi_w4_t21_k1 0
pi_w4_t21_k2 0
pi_w4_t22_k0 0
pi_w4_t22_k1 0
pi_w4_t22_k2 0
pi_w4_t23_k0 0
pi_w4_t23_k1 0
pi_w4_t23_k2 0
pi_w4_t24_k0 0
pi_w4_t24_k1 0
pi_w4_t24_k2 0
pi_w4_t25_k0 0
pi_w4_t25_k1 0
pi_w4_t25_k2 0
pi_w4_t26_k0 0
pi_w4_t26_k1 0
pi_w4_t26_k2 0
pi_w4_t27_k0 0
pi_w4_t27_k1 0
pi_w4_t27_k2 0
pi_w4_t28_k0 0
pi_w4_t28_k1 0
pi_w4_t28_k2 0
pi_w4_t29_k0 0
pi_w4_t29_k1 0
pi_w4_t29_k2 0
pi_w4_t30_k0 0
pi_w4_t30_k1 0
pi_w4_t30_k2 0
pi_w4_t31_k0 0
pi_w4_t31_k1 0
pi_w4_t31_k2 0
pi_w4_t32_k0 0
pi_w4_t32_k1 0
pi_w4_t32_k2 0
pi_w4_t33_k0 0
pi_w4_t33_k1 0
pi_w4_t33_k2 0
pi_w4_t34_k0 0
pi_w4_t34_k1 0
pi_w4_t34_k2 0
pi_w4_t35_k0 0
pi_w4_t35_k1 0
pi_w4_t35_k2 0
pi_w4_t36_k0 0
pi_w4_t36_k1 0
pi_w4_t36_k2 0
pi_w4_t37_k0 0
pi_w4_t37_k1 0
pi_w4_t37_k2 0
pi_w4_t38_k0 0
pi_w4_t38_k1 0
pi_w4_t38_k2 0
pi_w4_t39_k0 0
pi_w4_t39_k1 0
pi_w4_t39_k2 0
pi_w4_t40_k0 0
pi_w4_t40_k1 0
pi_w4_t40_k2 0
pi_w4_t41_k0 0
pi_w4_t41_k1 0
pi_w4_t41_k2 0
n_w0_t0_k0 0
n_w0_t0_k1 0
n_w0_t0_k2 0
n_w0_t1_k0 0
n_w0_t1_k1 0
n_w0_t1_k2 0
n_w0_t2_k0 0
n_w0_t2_k1 0
n_w0_t2_k2 0
n_w0_t3_k0 0
n_w0_t3_k1 0
n_w0_t3_k2 0
n_w0_t4_k0 0
n_w0_t4_k1 0
n_w0_t4_k2 0
n_w0_t5_k0 0
n_w0_t5_k1 0
n_w0_t5_k2 0
n_w0_t6_k0 0
n_w0_t6_k1 0
n_w0_t6_k2 0
n_w0_t7_k0 0
n_w0_t7_k1 1.8233026877874616e+00
n_w0_t7_k2 0
n_w0_t8_k0 0
n_w0_t8_k1 0
n_w0_t8_k2 0
n_w0_t9_k0 0
n_w0_t9_k1 0
n_w0_t9_k2 0
n_w0_t10_k0 0
n_w0_t10_k1 0
n_w0_t10_k2 0
n_w0_t11_k0 0
n_w0_t11_k1 0
n_w0_t11_k2 0
n_w0_t12_k0 0
n_w0_t12_k1 0
n_w0_t12_k2 0
n_w0_t13_k0 0
n_w0_t13_k1 0
n_w0_t13_k2 0
n_w0_t14_k0 0
n_w0_t14_k1 0
n_w0_t14_k2 0
n_w0_t15_k0 0
n_w0_t15_k1 0
n_w0_t15_k2 0
n_w0_t16_k0 0
n_w0_t16_k1 0
n_w0_t16_k2 0
n_w0_t17_k0 0
n_w0_t17_k1 0
n_w0_t17_k2 0
n_w0_t18_k0 0
n_w0_t18_k1 0
n_w0_t18_k2 0
n_w0_t19_k0 0
n_w0_t19_k1 0
n_w0_t19_k2 0
n_w0_t20_k0 0
n_w0_t20_k1 0
n_w0_t20_k2 0
n_w0_t21_k0 0
n_w0_t21_k1 0
n_w0_t21_k2 0
n_w0_t22_k0 0
n_w0_t22_k1 0
n_w0_t22_k2 0
n_w0_t23_k0 0
n_w0_t23_k1 0
n_w0_t23_k2 0
n_w0_t24_k0 0
n_w0_t24_k1 0
n_w0_t24_k2 0
n_w0_t25_k0 0
n_w0_t25_k1 5.4754784256488076e+00
n_w0_t25_k2 0
n_w0_t26_k0 0
n_w0_t26_k1 1.7701218886563730e+01
n_w0_t26_k2 0
n_w0_t27_k0 0
n_w0_t27_k1 0
n_w0_t27_k2 0
n_w0_t28_k0 0
n_w0_t28_k1 0
n_w0_t28_k2 0
n_w0_t29_k0 0
n_w0_t29_k1 0
n_w0_t29_k2 0
n_w0_t30_k0 0
n_w0_t30_k1 0
n_w0_t30_k2 0
n_w0_t31_k0 0
n_w0_t31_k1 0
n_w0_t31_k2 0
n_w0_t32_k0 0
n_w0_t32_k1 0
n_w0_t32_k2 0
n_w0_t33_k0 0
n_w0_t33_k1 0
n_w0_t33_k2 0
n_w0_t34_k0 0
n_w0_t34_k1 0
n_w0_t34_k2 0
n_w0_t35_k0 0
n_w0_t35_k1 0
n_w0_t35_k2 0
n_w0_t36_k0 0
n_w0_t36_k1 0
n_w0_t36_k2 0
n_w0_t37_k0 0
n_w0_t37_k1 0
n_w0_t37_k2 0
n_w0_t38_k0 0
n_w0_t38_k1 0
n_w0_t38_k2 0
n_w0_t39_k0 0
n_w0_t39_k1 0
n_w0_t39_k2 0
n_w0_t40_k0 0
n_w0_t40_k1 0
n_w0_t40_k2 0
n_w0_t41_k0 0
n_w0_t41_k1 0
n_w0_t41_k2 0
n_w1_t0_k0 0
n_w1_t0_k1 0
n_w1_t0_k2 0
n_w1_t1_k0 0
n_w1_t1_k1 0
n_w1_t1_k2 0
n_w1_t2_k0 0
n_w1_t2_k1 0
n_w1_t2_k2 0
n_w1_t3_k0 0
n_w1_t3_k1 0
n_w1_t3_k2 0
n_w1_t4_k0 0
n_w1_t4_k1 0
n_w1_t4_k2 0
n_w1_t5_k0 0
n_w1_t5_k1 0
n_w1_t5_k2 0
n_w1_t6_k0 3.9154192716504518e+01
n_w1_t6_k1 6.1100580177691977e-01
n_w1_t6_k2 0
n_w1_t7_k0 0
n_w1_t7_k1 9.2290910411702995e+00
n_w1_t7_k2 4.2512904150444484e+01
n_w1_t8_k0 0
n_w1_t8_k1 0
n_w1_t8_k2 0
n_w1_t9_k0 0
n_w1_t9_k1 0
n_w1_t9_k2 4.2431774714025551e+01
n_w1_t10_k0 0
n_w1_t10_k1 0
n_w1_t10_k2 0
n_w1_t11_k0 3.0039097249492627e+01
n_w1_t11_k1 0
n_w1_t11_k2 0
n_w1_t12_k0 0
n_w1_t12_k1 0
n_w1_t12_k2 0
n_w1_t13_k0 0
n_w1_t13_k1 0
n_w1_t13_k2 0
n_w1_t14_k0 0
n_w1_t14_k1 0
n_w1_t14_k2 0
n_w1_t15_k0 0
n_w1_t15_k1 0
n_w1_t15_k2 0
n_w1_t16_k0 0
n_w1_t16_k1 0
n_w1_t16_k2 0
n_w1_t17_k0 0
n_w1_t17_k1 0
n_w1_t17_k2 0
n_w1_t18_k0 0
n_w1_t18_k1 0
n_w1_t18_k2 0
n_w1_t19_k0 0
n_w1_t19_k1 0
n_w1_t19_k2 0
n_w1_t20_k0 0
n_w1_t20_k1 0
n_w1_t20_k2 0
n_w1_t21_k0 0
n_w1_t21_k1 0
n_w1_t21_k2 0
n_w1_t22_k0 0
n_w1_t22_k1 0
n_w1_t22_k2 0
n_w1_t23_k0 0
n_w1_t23_k1 0
n_w1_t23_k2 0
n_w1_t24_k0 0
n_w1_t24_k1 0
n_w1_t24_k2 0
n_w1_t25_k0 0
n_w1_t25_k1 2.3515357892487906e+01
n_w1_t25_k2 0
n_w1_t26_k0 6.3806710034002862e+01
n_w1_t26_k1 8.3644545264564869e+01
n_w1_t26_k2 1.0505532113552997e+02
n_w1_t27_k0 0
n_w1_t27_k1 0
n_w1_t27_k2 0
n_w1_t28_k0 0
n_w1_t28_k1 0
n_w1_t28_k2 0
n_w1_t29_k0 0
n_w1_t29_k1 0
n_w1_t29_k2 0
n_w1_t30_k0 0
n_w1_t30_k1 0
n_w1_t30_k2 0
n_w1_t31_k0 0
n_w1_t31_k1 0
n_w1_t31_k2 0
n_w1_t32_k0 0
n_w1_t32_k1 0
n_w1_t32_k2 0
n_w1_t33_k0 0
n_w1_t33_k1 0
n_w1_t33_k2 0
n_w1_t34_k0 0
n_w1_t34_k1 0
n_w1_t34_k2 0
n_w1_t35_k0 0
n_w1_t35_k1 0
n_w1_t35_k2 0
n_w1_t36_k0 0
n_w1_t36_k1 0
n_w1_t36_k2 0
n_w1_t37_k0 0
n_w1_t37_k1 0
n_w1_t37_k2 0
n_w1_t38_k0 0
n_w1_t38_k1 0
n_w1_t38_k2 0
n_w1_t39_k0 0
n_w1_t39_k1 0
n_w1_t39_k2 0
n_w1_t40_k0 0
n_w1_t40_k1 0
n_w1_t40_k2 0
n_w1_t41_k0 0
n_w1_t41_k1 0
n_w1_t41_k2 0
n_w2_t0_k0 0
n_w2_t0_k1 0
n_w2_t0_k2 0
n_w2_t1_k0 0
n_w2_t1_k1 0
n_w2_t1_k2 0
n_w2_t2_k0 0
n_w2_t2_k1 0
n_w2_t2_k2 0
n_w2_t3_k0 0
n_w2_t3_k1 0
n_w2_t3_k2 0
n_w2_t4_k0 0
n_w2_t4_k1 0
n_w2_t4_k2 0
n_w2_t5_k0 0
n_w2_t5_k1 0
n_w2_t5_k2 0
n_w2_t6_k0 0
n_w2_t6_k1 0
n_w2_t6_k2 0
n_w2_t7_k0 0
n_w2_t7_k1 0
n_w2_t7_k2 0
n_w2_t8_k0 0
n_w2_t8_k1 0
n_w2_t8_k2 0
n_w2_t9_k0 0
n_w2_t9_k1 0
n_w2_t9_k2 0
n_w2_t10_k0 0
n_w2_t10_k1 0
n_w2_t10_k2 0
n_w2_t11_k0 0
n_w2_t11_k1 0
n_w2_t11_k2 0
n_w2_t12_k0 0
n_w2_t12_k1 0
n_w2_t12_k2 0
n_w2_t13_k0 0
n_w2_t13_k1 0
n_w2_t13_k2 0
n_w2_t14_k0 0
n_w2_t14_k1 0
n_w2_t14_k2 0
n_w2_t15_k0 0
n_w2_t15_k1 0
n_w2_t15_k2 0
n_w2_t16_k0 0
n_w2_t16_k1 6.2053014997771223e+00
n_w2_t16_k2 0
n_w2_t17_k0 0
n_w2_t17_k1 0
n_w2_t17_k2 0
n_w2_t18_k0 0
n_w2_t18_k1 0
n_w2_t18_k2 0
n_w2_t19_k0 0
n_w2_t19_k1 0
n_w2_t19_k2 0
n_w2_t20_k0 0
n_w2_t20_k1 0
n_w2_t20_k2 0
n_w2_t21_k0 0
n_w2_t21_k1 0
n_w2_t21_k2 0
n_w2_t22_k0 0
n_w2_t22_k1 0
n_w2_t22_k2 0
n_w2_t23_k0 0
n_w2_t23_k1 0
n_w2_t23_k2 0
n_w2_t24_k0 0
n_w2_t24_k1 0
n_w2_t24_k2 0
n_w2_t25_k0 2.3539474658655779e+00
n_w2_t25_k1 0
n_w2_t25_k2 8.1009569296994091e+00
n_w2_t26_k0 0
n_w2_t26_k1 0
n_w2_t26_k2 0
n_w2_t27_k0 0
n_w2_t27_k1 0
n_w2_t27_k2 0
n_w2_t28_k0 1.5098950859126539e+01
n_w2_t28_k1 0
n_w2_t28_k2 0
n_w2_t29_k0 0
n_w2_t29_k1 0
n_w2_t29_k2 0
n_w2_t30_k0 0
n_w2_t30_k1 0
n_w2_t30_k2 0
n_w2_t31_k0 0
n_w2_t31_k1 0
n_w2_t31_k2 1.8990430703005912e+00
n_w2_t32_k0 0
n_w2_t32_k1 0
n_w2_t32_k2 0
n_w2_t33_k0 0
n_w2_t33_k1 6.7193637125158077e+00
n_w2_t33_k2 0
n_w2_t34_k0 0
n_w2_t34_k1 0
n_w2_t34_k2 0
n_w2_t35_k0 0
n_w2_t35_k1 0
n_w2_t35_k2 0
n_w2_t36_k0 0
n_w2_t36_k1 0
n_w2_t36_k2 0
n_w2_t37_k0 0
n_w2_t37_k1 0
n_w2_t37_k2 0
n_w2_t38_k0 0
n_w2_t38_k1 8.0753347877070691e+00
n_w2_t38_k2 0
n_w2_t39_k0 0
n_w2_t39_k1 0
n_w2_t39_k2 0
n_w2_t40_k0 3.3547101675007880e+01
n_w2_t40_k1 0
n_w2_t40_k2 0
n_w2_t41_k0 0
n_w2_t41_k1 0
n_w2_t41_k2 0
n_w3_t0_k0 0
n_w3_t0_k1 0
n_w3_t0_k2 0
n_w3_t1_k0 0
n_w3_t1_k1 0
n_w3_t1_k2 0
n_w3_t2_k0 0
n_w3_t2_k1 0
n_w3_t2_k2 0
n_w3_t3_k0 0
n_w3_t3_k1 0
n_w3_t3_k2 0
n_w3_t4_k0 0
n_w3_t4_k1 0
n_w3_t4_k2 0
n_w3_t5_k0 0
n_w3_t5_k1 0
n_w3_t5_k2 0
n_w3_t6_k0 5.0929889774099578e+01
n_w3_t6_k1 0
n_w3_t6_k2 0
n_w3_t7_k0 0
n_w3_t7_k1 0
n_w3_t7_k2 3.8037861608292416e+00
n_w3_t8_k0 0
n_w3_t8_k1 0
n_w3_t8_k2 0
n_w3_t9_k0 0
n_w3_t9_k1 0
n_w3_t9_k2 3.7965272112549080e+00
n_w3_t10_k0 0
n_w3_t10_k1 0
n_w3_t10_k2 0
n_w3_t11_k0 3.9073412211746991e+01
n_w3_t11_k1 0
n_w3_t11_k2 0
n_w3_t12_k0 0
n_w3_t12_k1 0
n_w3_t12_k2 0
n_w3_t13_k0 0
n_w3_t13_k1 0
n_w3_t13_k2 0
n_w3_t14_k0 0
n_w3_t14_k1 0
n_w3_t14_k2 0
n_w3_t15_k0 0
n_w3_t15_k1 0
n_w3_t15_k2 0
n_w3_t16_k0 0
n_w3_t16_k1 0
n_w3_t16_k2 0
n_w3_t17_k0 0
n_w3_t17_k1 0
n_w3_t17_k2 0
n_w3_t18_k0 0
n_w3_t18_k1 0
n_w3_t18_k2 0
n_w3_t19_k0 0
n_w3_t19_k1 0
n_w3_t19_k2 0
n_w3_t20_k0 0
n_w3_t20_k1 0
n_w3_t20_k2 0
n_w3_t21_k0 0
n_w3_t21_k1 0
n_w3_t21_k2 0
n_w3_t22_k0 0
n_w3_t22_k1 0
n_w3_t22_k2 0
n_w3_t23_k0 0
n_w3_t23_k1 0
n_w3_t23_k2 0
n_w3_t24_k0 0
n_w3_t24_k1 0
n_w3_t24_k2 0
n_w3_t25_k0 0
n_w3_t25_k1 0
n_w3_t25_k2 0
n_w3_t26_k0 8.2996698014153438e+01
n_w3_t26_k1 0
n_w3_t26_k2 9.3996866279158500e+00
n_w3_t27_k0 0
n_w3_t27_k1 0
n_w3_t27_k2 0
n_w3_t28_k0 0
n_w3_t28_k1 0
n_w3_t28_k2 0
n_w3_t29_k0 0
n_w3_t29_k1 0
n_w3_t29_k2 0
n_w3_t30_k0 0
n_w3_t30_k1 0
n_w3_t30_k2 0
n_w3_t31_k0 0
n_w3_t31_k1 0
n_w3_t31_k2 0
n_w3_t32_k0 0
n_w3_t32_k1 0
n_w3_t32_k2 0
n_w3_t33_k0 0
n_w3_t33_k1 0
n_w3_t33_k2 0
n_w3_t34_k0 0
n_w3_t34_k1 0
n_w3_t34_k2 0
n_w3_t35_k0 0
n_w3_t35_k1 0
n_w3_t35_k2 0
n_w3_t36_k0 0
n_w3_t36_k1 0
n_w3_t36_k2 0
n_w3_t37_k0 0
n_w3_t37_k1 0
n_w3_t37_k2 0
n_w3_t38_k0 0
n_w3_t38_k1 0
n_w3_t38_k2 0
n_w3_t39_k0 0
n_w3_t39_k1 0
n_w3_t39_k2 0
n_w3_t40_k0 0
n_w3_t40_k1 0
n_w3_t40_k2 0
n_w3_t41_k0 0
n_w3_t41_k1 0
n_w3_t41_k2 0
n_w4_t0_k0 0
n_w4_t0_k1 0
n_w4_t0_k2 0
n_w4_t1_k0 0
n_w4_t1_k1 0
n_w4_t1_k2 0
n_w4_t2_k0 0
n_w4_t2_k1 0
n_w4_t2_k2 0
n_w4_t3_k0 0
n_w4_t3_k1 0
n_w4_t3_k2 0
n_w4_t4_k0 0
n_w4_t4_k1 0
n_w4_t4_k2 0
n_w4_t5_k0 0
n_w4_t5_k1 0
n_w4_t5_k2 0
n_w4_t6_k0 0
n_w4_t6_k1 0
n_w4_t6_k2 0
n_w4_t7_k0 0
n_w4_t7_k1 0
n_w4_t7_k2 0
n_w4_t8_k0 0
n_w4_t8_k1 0
n_w4_t8_k2 0
n_w4_t9_k0 0
n_w4_t9_k1 0
n_w4_t9_k2 0
n_w4_t10_k0 0
n_w4_t10_k1 0
n_w4_t10_k2 0
n_w4_t11_k0 0
n_w4_t11_k1 0
n_w4_t11_k2 0
n_w4_t12_k0 0
n_w4_t12_k1 0
n_w4_t12_k2 0
n_w4_t13_k0 0
n_w4_t13_k1 0
n_w4_t13_k2 0
n_w4_t14_k0 0
n_w4_t14_k1 0
n_w4_t14_k2 0
n_w4_t15_k0 0
n_w4_t15_k1 0
n_w4_t15_k2 0
n_w4_t16_k0 0
n_w4_t16_k1 0
n_w4_t16_k2 0
n_w4_t17_k0 0
n_w4_t17_k1 0
n_w4_t17_k2 0
n_w4_t18_k0 0
n_w4_t18_k1 0
n_w4_t18_k2 0
n_w4_t19_k0 0
n_w4_t19_k1 0
n_w4_t19_k2 0
n_w4_t20_k0 0
n_w4_t20_k1 0
n_w4_t20_k2 0
n_w4_t21_k0 0
n_w4_t21_k1 0
n_w4_t21_k2 0
n_w4_t22_k0 0
n_w4_t22_k1 0
n_w4_t22_k2 0
n_w4_t23_k0 0
n_w4_t23_k1 0
n_w4_t23_k2 0
n_w4_t24_k0 0
n_w4_t24_k1 0
n_w4_t24_k2 0
n_w4_t25_k0 0
n_w4_t25_k1 0
n_w4_t25_k2 0
n_w4_t26_k0 0
n_w4_t26_k1 0
n_w4_t26_k2 0
n_w4_t27_k0 0
n_w4_t27_k1 0
n_w4_t27_k2 0
n_w4_t28_k0 0
n_w4_t28_k1 0
n_w4_t28_k2 0
n_w4_t29_k0 0
n_w4_t29_k1 0
n_w4_t29_k2 0
n_w4_t30_k0 0
n_w4_t30_k1 0
n_w4_t30_k2 0
n_w4_t31_k0 0
n_w4_t31_k1 0
n_w4_t31_k2 0
n_w4_t32_k0 0
n_w4_t32_k1 0
n_w4_t32_k2 0
n_w4_t33_k0 0
n_w4_t33_k1 0
n_w4_t33_k2 0
n_w4_t34_k0 0
n_w4_t34_k1 0
n_w4_t34_k2 0
n_w4_t35_k0 0
n_w4_t35_k1 0
n_w4_t35_k2 0
n_w4_t36_k0 0
n_w4_t36_k1 0
n_w4_t36_k2 0
n_w4_t37_k0 0
n_w4_t37_k1 0
n_w4_t37_k2 0
n_w4_t38_k0 0
n_w4_t38_k1 0
n_w4_t38_k2 0
n_w4_t39_k0 0
n_w4_t39_k1 0
n_w4_t39_k2 0
n_w4_t40_k0 0
n_w4_t40_k1 0
n_w4_t40_k2 0
n_w4_t41_k0 0
n_w4_t41_k1 0
n_w4_t41_k2 0
o_w0_r0 0
o_w0_r1 0
o_w0_r2 0
o_w0_r3 0
o_w0_r4 0
o_w0_r5 0
o_w1_r0 0
o_w1_r1 6.9322646126976423e+01
o_w1_r2 0
o_w1_r3 2.2838115585184255e+01
o_w1_r4 0
o_w1_r5 0
o_w2_r0 0
o_w2_r1 0
o_w2_r2 0
o_w2_r3 0
o_w2_r4 0
o_w2_r5 0
o_w3_r0 0
o_w3_r1 8.9382279202144232e+01
o_w3_r2 0
o_w3_r3 0
o_w3_r4 0
o_w3_r5 0
o_w4_r0 0
o_w4_r1 0
o_w4_r2 0
o_w4_r3 0
o_w4_r4 0
o_w4_r5 0
y_w0_r0 1.3368983957219252e-01
y_w0_r1 0
y_w0_r2 1.0245901639344263e-01
y_w0_r3 1.9012077866836136e-02
y_w0_r4 1.7880019077337100e-01
y_w0_r5 0
y_w1_r0 2.1923042927834619e+00
y_w1_r1 6.9804295767774069e-03
y_w1_r2 1.4664058474085775e+00
y_w1_r3 2.3515357892487905e-03
y_w1_r4 2.9791752641224574e+00
y_w1_r5 0
y_w2_r0 1.3665163237802955e-01
y_w2_r1 1.1295804769535192e+00
y_w2_r2 1.3669650600764582e-01
y_w2_r3 3.1914392490587268e-01
y_w2_r4 5.5405408115062160e-01
y_w2_r5 1.0742622261162391e+00
y_w3_r0 8.0709405234359899e-01
y_w3_r1 9.0003301985846582e-03
y_w3_r2 5.5439993038789148e-01
y_w3_r3 0
y_w3_r4 9.7164557427600207e-01
y_w3_r5 0
y_w4_r0 0
y_w4_r1 1.2953953507557134e+00
y_w4_r2 0
y_w4_r3 0
y_w4_r4 0
y_w4_r5 0
p_w0 7.7225656537316434e-01
s_w0 7.7225656537316434e-01
p_w1 1.1113813947732860e+01
s_w1 1.0341557382359696e+01
p_w2 1.0341557382359696e+01
s_w2 0
p_w3 3.8861860522671403e+00
s_w3 3.8861860522671403e+00
p_w4 3.8861860522671403e+00
s_w4 0
